c DIMACS CNF format
c Generated from: research_3vars_6clauses_seed999.md
c Batch export from 
c Generated on: 2025-07-15T10:21:56.960
c
p cnf 3 6
-3 1 1 0
2 1 -3 0
-2 2 2 0
-3 -2 1 0
-1 2 2 0
-2 -3 -3 0
